p cnf 47 136
a 15 23 0
e 1 2 3 4 5 6 7 8 9 10 11 12 13 14 16 17 18 19 20 21 22 24 25 26 27 28 29 30 31 32 33 34 35 36 37 38 39 40 41 42 43 44 45 46 47 0
-2 3 -4 0
2 -3 -4 0
-2 -3 4 0
2 3 4 0
-5 1 0
-5 -4 0
-1 4 5 0
8 -6 0
8 -7 0
6 7 -8 0
2 -8 -9 0
-2 8 -9 0
2 8 9 0
-2 -8 9 0
10 -5 0
10 9 0
5 -9 -10 0
12 -10 0
12 -11 0
10 11 -12 0
13 -11 0
13 3 0
11 -3 -13 0
15 -13 0
15 -14 0
13 14 -15 0
-16 10 0
-16 -15 0
-10 15 16 0
-17 12 0
-17 -16 0
-12 16 17 0
-18 -7 0
-18 6 0
7 -6 18 0
-19 17 0
-19 -18 0
-17 18 19 0
-20 -6 0
-20 -3 0
6 3 20 0
21 -20 0
21 11 0
20 -11 -21 0
6 -11 -22 0
-6 11 -22 0
6 11 22 0
-6 -11 22 0
23 -21 0
23 22 0
21 -22 -23 0
11 -22 -24 0
-11 22 -24 0
11 22 24 0
-11 -22 24 0
25 5 0
25 -24 0
-5 24 -25 0
-26 -25 0
-26 7 0
25 -7 26 0
-27 -1 0
-27 26 0
1 -26 27 0
-23 27 -28 0
23 -27 -28 0
-23 -27 28 0
23 27 28 0
29 -1 0
29 14 0
1 -14 -29 0
-30 1 0
-30 2 0
-1 -2 30 0
32 -20 0
32 31 0
20 -31 -32 0
30 -32 -33 0
-30 32 -33 0
30 32 33 0
-30 -32 33 0
29 -33 -34 0
-29 33 -34 0
29 33 34 0
-29 -33 34 0
36 1 0
36 35 0
-1 -35 -36 0
-34 -36 -37 0
34 36 -37 0
-34 36 37 0
34 -36 37 0
-28 37 -38 0
28 -37 -38 0
-28 -37 38 0
28 37 38 0
-39 19 0
-39 38 0
-19 -38 39 0
-41 -22 0
-41 40 0
22 -40 41 0
42 8 0
42 -40 0
-8 40 -42 0
41 42 -43 0
-41 -42 -43 0
41 -42 43 0
-41 42 43 0
-22 -31 -44 0
22 31 -44 0
-22 31 44 0
22 -31 44 0
-45 -15 0
-45 44 0
15 -44 45 0
-43 45 -46 0
43 -45 -46 0
-43 -45 46 0
43 45 46 0
47 39 0
47 46 0
-39 -46 -47 0
30 1 13 33 25 -36 5 19 0
-27 21 31 -35 -15 12 -2 26 0
31 18 14 16 -28 0
-11 32 -18 0
-17 45 26 37 -47 14 31 -40 0
34 -3 28 5 -43 0
11 -12 26 -18 -2 -4 -27 37 0
6 26 22 2 43 0
-9 17 -18 -19 0
-44 -17 -7 -26 0
-14 23 -44 11 -32 3 0
45 34 -37 43 11 -21 29 0
47 0
